p edge 107 736
e 1 2
e 1 3
e 1 4
e 1 5
e 2 3
e 2 4
e 2 5
e 3 4
e 3 5
e 4 5
e 5 6
e 5 8
e 5 10
e 5 12
e 5 14
e 5 17
e 5 19
e 5 21
e 5 23
e 5 25
e 5 27
e 5 29
e 5 31
e 5 33
e 5 35
e 5 37
e 5 39
e 5 41
e 5 43
e 5 45
e 5 47
e 5 49
e 5 51
e 5 53
e 5 55
e 5 57
e 5 59
e 5 61
e 5 63
e 5 65
e 5 67
e 5 69
e 5 71
e 5 73
e 5 75
e 5 77
e 5 79
e 5 81
e 5 83
e 5 85
e 5 87
e 5 89
e 5 90
e 5 92
e 5 94
e 5 96
e 5 98
e 5 100
e 5 102
e 5 104
e 5 107
e 6 7
e 6 18
e 6 38
e 6 70
e 7 8
e 7 10
e 7 12
e 7 14
e 7 16
e 7 20
e 7 22
e 7 25
e 7 27
e 7 30
e 7 32
e 7 34
e 7 36
e 7 39
e 7 42
e 8 9
e 8 18
e 8 70
e 9 10
e 9 13
e 9 15
e 9 17
e 9 20
e 9 23
e 9 25
e 9 27
e 9 30
e 9 33
e 9 36
e 9 38
e 9 40
e 9 42
e 9 44
e 9 45
e 9 46
e 9 47
e 9 48
e 9 49
e 9 50
e 9 51
e 9 71
e 9 74
e 9 75
e 9 76
e 9 77
e 9 78
e 9 79
e 9 80
e 9 81
e 9 82
e 9 83
e 9 84
e 9 85
e 9 86
e 9 87
e 9 88
e 9 90
e 9 91
e 9 92
e 9 93
e 9 94
e 9 95
e 9 96
e 9 97
e 9 98
e 10 11
e 10 70
e 10 72
e 11 12
e 11 14
e 11 16
e 11 18
e 11 20
e 11 22
e 11 27
e 11 29
e 11 42
e 11 73
e 11 99
e 12 13
e 12 38
e 12 70
e 13 14
e 13 16
e 13 18
e 13 22
e 13 24
e 13 29
e 13 37
e 13 43
e 13 73
e 13 99
e 14 15
e 14 26
e 14 28
e 14 38
e 14 40
e 15 16
e 15 18
e 15 29
e 15 43
e 15 53
e 15 70
e 16 17
e 16 19
e 16 21
e 16 23
e 16 26
e 16 28
e 16 31
e 16 33
e 16 35
e 16 38
e 16 40
e 16 71
e 17 18
e 17 70
e 18 19
e 18 21
e 18 23
e 18 25
e 18 28
e 18 30
e 18 32
e 18 34
e 18 36
e 18 39
e 18 41
e 18 44
e 18 46
e 18 48
e 18 50
e 18 52
e 18 54
e 18 55
e 18 56
e 18 57
e 18 58
e 18 59
e 18 60
e 18 61
e 18 62
e 18 63
e 18 64
e 18 65
e 18 66
e 18 67
e 18 68
e 18 69
e 18 72
e 18 74
e 18 76
e 18 78
e 18 80
e 18 83
e 18 85
e 18 87
e 18 89
e 18 90
e 18 92
e 18 94
e 18 96
e 18 98
e 19 20
e 19 70
e 20 21
e 20 24
e 20 26
e 20 28
e 20 31
e 20 35
e 20 37
e 20 41
e 20 43
e 20 52
e 20 72
e 20 89
e 21 22
e 21 42
e 21 99
e 22 23
e 22 31
e 22 33
e 22 38
e 22 53
e 22 70
e 23 24
e 23 99
e 24 25
e 24 27
e 24 33
e 24 36
e 24 38
e 24 45
e 24 47
e 24 49
e 24 51
e 24 53
e 24 70
e 24 74
e 24 76
e 24 78
e 24 80
e 24 82
e 24 84
e 24 86
e 24 88
e 24 92
e 24 94
e 24 96
e 24 98
e 25 26
e 25 99
e 26 27
e 26 34
e 26 36
e 26 39
e 26 53
e 26 70
e 27 28
e 27 52
e 27 72
e 28 29
e 28 53
e 28 70
e 29 30
e 29 32
e 29 34
e 29 36
e 29 44
e 29 46
e 29 48
e 29 50
e 29 52
e 29 54
e 29 56
e 29 58
e 29 60
e 29 62
e 29 64
e 29 66
e 29 68
e 29 72
e 29 74
e 29 76
e 29 78
e 29 80
e 30 31
e 30 43
e 30 53
e 30 70
e 31 32
e 31 34
e 31 36
e 31 42
e 32 33
e 32 38
e 32 53
e 32 70
e 33 34
e 33 52
e 33 72
e 34 35
e 34 38
e 34 40
e 34 71
e 34 73
e 34 99
e 35 36
e 35 70
e 36 37
e 36 43
e 36 73
e 36 99
e 37 38
e 37 70
e 37 74
e 37 76
e 37 78
e 37 80
e 37 82
e 37 84
e 37 86
e 37 88
e 38 39
e 38 41
e 38 43
e 38 52
e 38 72
e 38 89
e 39 40
e 39 99
e 40 41
e 40 43
e 40 53
e 40 70
e 40 72
e 41 42
e 41 82
e 41 84
e 41 86
e 41 88
e 41 91
e 41 93
e 41 95
e 41 97
e 41 99
e 42 43
e 42 53
e 42 70
e 42 72
e 43 44
e 43 46
e 43 48
e 43 50
e 43 74
e 43 76
e 43 78
e 43 80
e 43 82
e 43 84
e 43 86
e 43 88
e 43 91
e 43 93
e 43 95
e 43 97
e 44 45
e 44 47
e 44 51
e 44 53
e 44 70
e 44 84
e 44 86
e 44 88
e 45 46
e 45 50
e 45 52
e 45 72
e 45 74
e 45 76
e 45 80
e 45 82
e 45 84
e 45 88
e 45 91
e 45 93
e 45 97
e 46 47
e 46 49
e 46 53
e 46 70
e 46 82
e 46 86
e 46 88
e 47 48
e 47 52
e 47 72
e 47 74
e 47 76
e 47 78
e 47 82
e 47 84
e 47 86
e 47 91
e 47 93
e 47 95
e 48 49
e 48 51
e 48 53
e 48 70
e 48 82
e 48 84
e 48 88
e 49 50
e 49 52
e 49 72
e 49 76
e 49 78
e 49 80
e 49 84
e 49 86
e 49 88
e 49 93
e 49 95
e 49 97
e 50 51
e 50 53
e 50 70
e 50 82
e 50 84
e 50 86
e 51 52
e 51 72
e 51 74
e 51 78
e 51 80
e 51 82
e 51 86
e 51 88
e 51 91
e 51 95
e 51 97
e 52 53
e 52 70
e 52 82
e 52 84
e 52 86
e 52 88
e 53 54
e 53 56
e 53 58
e 53 60
e 53 91
e 53 93
e 53 95
e 53 97
e 53 99
e 53 101
e 53 103
e 53 105
e 53 106
e 54 55
e 54 57
e 54 61
e 54 64
e 54 66
e 54 68
e 54 70
e 55 56
e 55 60
e 55 62
e 55 64
e 55 68
e 55 99
e 56 57
e 56 59
e 56 62
e 56 66
e 56 68
e 56 70
e 57 58
e 57 62
e 57 64
e 57 66
e 57 99
e 58 59
e 58 61
e 58 62
e 58 64
e 58 68
e 58 70
e 59 60
e 59 64
e 59 66
e 59 68
e 59 99
e 60 61
e 60 62
e 60 64
e 60 66
e 60 70
e 61 62
e 61 66
e 61 68
e 61 99
e 62 63
e 62 64
e 62 65
e 62 66
e 62 68
e 62 69
e 62 73
e 62 99
e 63 64
e 63 68
e 63 70
e 64 65
e 64 66
e 64 67
e 64 68
e 64 73
e 64 99
e 65 66
e 65 70
e 66 67
e 66 68
e 66 69
e 66 73
e 66 99
e 67 68
e 67 70
e 68 69
e 68 73
e 68 99
e 69 70
e 70 71
e 70 73
e 70 75
e 70 77
e 70 79
e 70 81
e 70 83
e 70 85
e 70 87
e 70 89
e 70 90
e 70 91
e 70 93
e 70 95
e 70 97
e 70 99
e 70 100
e 70 101
e 70 102
e 70 103
e 70 104
e 70 105
e 70 106
e 70 107
e 71 72
e 72 73
e 72 75
e 72 77
e 72 79
e 72 81
e 72 82
e 72 84
e 72 86
e 72 88
e 72 91
e 72 93
e 72 95
e 72 97
e 72 99
e 73 74
e 73 76
e 73 78
e 73 80
e 74 75
e 74 77
e 74 81
e 74 84
e 74 86
e 74 88
e 74 93
e 74 95
e 74 97
e 74 99
e 75 76
e 75 80
e 75 82
e 75 84
e 75 88
e 76 77
e 76 79
e 76 82
e 76 86
e 76 88
e 76 91
e 76 95
e 76 97
e 76 99
e 77 78
e 77 82
e 77 84
e 77 86
e 78 79
e 78 81
e 78 82
e 78 84
e 78 88
e 78 91
e 78 93
e 78 97
e 78 99
e 79 80
e 79 84
e 79 86
e 79 88
e 80 81
e 80 82
e 80 84
e 80 86
e 80 91
e 80 93
e 80 95
e 80 99
e 81 82
e 81 86
e 81 88
e 82 83
e 82 84
e 82 85
e 82 86
e 82 88
e 82 89
e 82 90
e 82 92
e 82 93
e 82 94
e 82 95
e 82 97
e 82 98
e 83 84
e 83 88
e 84 85
e 84 86
e 84 87
e 84 88
e 84 89
e 84 91
e 84 92
e 84 94
e 84 95
e 84 96
e 84 97
e 85 86
e 86 87
e 86 88
e 86 89
e 86 90
e 86 91
e 86 93
e 86 94
e 86 96
e 86 97
e 86 98
e 87 88
e 88 89
e 88 90
e 88 91
e 88 92
e 88 93
e 88 95
e 88 96
e 88 98
e 91 92
e 91 94
e 91 98
e 92 93
e 92 97
e 92 99
e 93 94
e 93 96
e 94 95
e 94 99
e 95 96
e 95 98
e 96 97
e 96 99
e 97 98
e 98 99
e 100 101
e 100 103
e 100 106
e 101 102
e 101 103
e 101 105
e 101 106
e 101 107
e 102 103
e 102 105
e 103 104
e 103 105
e 103 106
e 104 105
e 104 106
e 105 106
e 105 107
e 106 107
